# Solution for model ComputeNE_MIP
# Objective value = 7
sigma_0_0 0
sigma_0_1 1
sigma_0_2 0
sigma_0_3 0
sigma_1_0 0
sigma_1_1 0
sigma_1_2 0
sigma_1_3 0
sigma_1_4 1
sigma_1_5 0
sigma_2_0 0
sigma_2_1 0
sigma_2_2 0
sigma_2_3 0
sigma_2_4 0
sigma_2_5 0
sigma_2_6 1
sigma_3_0 0
sigma_3_1 0
sigma_3_2 0
sigma_3_3 0
sigma_3_4 0
sigma_3_5 0
sigma_3_6 0
sigma_3_7 1
sigma_4_0 0
sigma_4_1 0
sigma_4_2 0
sigma_4_3 0
sigma_4_4 0
sigma_4_5 0
sigma_4_6 0
sigma_4_7 1
sigma_5_0 0
sigma_5_1 0
sigma_5_2 0
sigma_5_3 0
sigma_5_4 0
sigma_5_5 0
sigma_5_6 0
sigma_5_7 1
sigma_6_0 0
sigma_6_1 0
sigma_6_2 0
sigma_6_3 0
sigma_6_4 0
sigma_6_5 0
sigma_6_6 0
sigma_6_7 1
activ_0_0 0
activ_0_1 1
activ_0_2 0
activ_0_3 0
activ_1_0 0
activ_1_1 0
activ_1_2 0
activ_1_3 0
activ_1_4 1
activ_1_5 0
activ_2_0 0
activ_2_1 0
activ_2_2 0
activ_2_3 0
activ_2_4 0
activ_2_5 0
activ_2_6 1
activ_3_0 0
activ_3_1 0
activ_3_2 0
activ_3_3 0
activ_3_4 0
activ_3_5 0
activ_3_6 0
activ_3_7 1
activ_4_0 0
activ_4_1 0
activ_4_2 0
activ_4_3 0
activ_4_4 0
activ_4_5 0
activ_4_6 0
activ_4_7 1
activ_5_0 0
activ_5_1 0
activ_5_2 0
activ_5_3 0
activ_5_4 0
activ_5_5 0
activ_5_6 0
activ_5_7 1
activ_6_0 0
activ_6_1 0
activ_6_2 0
activ_6_3 0
activ_6_4 0
activ_6_5 0
activ_6_6 0
activ_6_7 1
v_0 -36.0571016801668
v_1 1.3697404781681803e+03
v_2 1.8697311515069146e+03
v_3 2.6149532115139382e+03
v_4 1.3108545938090217e+03
v_5 3.8454541645092381e+03
v_6 3.7292895395367873e+03
ArtP_R0 0
ArtN_R0 0
ArtN_R1 0
ArtP_R2 0
ArtN_R2 0
ArtN_R3 0
ArtP_R4 0
ArtN_R4 0
ArtN_R5 0
ArtP_R6 0
ArtN_R6 0
ArtN_R7 0
ArtP_R8 0
ArtN_R8 0
ArtN_R9 0
ArtP_R10 0
ArtN_R10 0
ArtN_R11 0
ArtP_R12 0
ArtN_R12 0
ArtN_R13 0
ArtN_R14 0
ArtN_R15 0
ArtN_R16 0
ArtN_R17 0
ArtN_R18 0
ArtN_R19 0
ArtN_R20 0
ArtN_R21 0
ArtN_R22 0
ArtN_R23 0
ArtN_R24 0
ArtN_R25 0
ArtN_R26 0
ArtN_R27 0
ArtN_R28 0
ArtN_R29 0
ArtN_R30 0
ArtN_R31 0
ArtN_R32 0
ArtN_R33 0
ArtN_R34 0
ArtN_R35 0
ArtN_R36 0
ArtN_R37 0
ArtN_R38 0
ArtN_R39 0
ArtN_R40 0
ArtN_R41 0
ArtN_R42 0
ArtN_R43 0
ArtN_R44 0
ArtN_R45 0
ArtN_R46 0
ArtN_R47 0
ArtN_R48 0
ArtN_R49 0
ArtN_R50 0
ArtN_R51 0
ArtN_R52 0
ArtN_R53 0
ArtN_R54 0
ArtN_R55 0
ArtN_R56 0
ArtN_R57 0
ArtN_R58 0
ArtN_R59 0
ArtN_R60 0
ArtN_R61 0
ArtN_R62 0
ArtN_R63 0
ArtN_R64 0
ArtN_R65 0
ArtN_R66 0
ArtN_R67 0
ArtN_R68 0
ArtN_R69 0
ArtN_R70 0
ArtN_R71 0
ArtN_R72 0
ArtN_R73 0
ArtN_R74 0
ArtN_R75 0
ArtN_R76 0
ArtN_R77 0
ArtN_R78 0
ArtN_R79 0
ArtN_R80 0
ArtN_R81 0
ArtN_R82 0
ArtN_R83 0
ArtN_R84 0
ArtN_R85 0
ArtN_R86 0
ArtN_R87 0
ArtN_R88 0
ArtN_R89 0
ArtN_R90 0
ArtN_R91 0
ArtN_R92 0
ArtN_R93 0
ArtN_R94 0
ArtN_R95 0
ArtN_R96 0
ArtN_R97 0
ArtN_R98 0
ArtN_R99 0
ArtN_R100 0
ArtN_R101 0
ArtN_R102 0
ArtN_R103 0
ArtN_R104 0
ArtN_R105 0
ArtN_R106 0
ArtN_R107 0
ArtN_R108 0
ArtN_R109 0
ArtN_R110 0
ArtN_R111 0
